asp/input/in_30_15_6_2.lp
#const n = 30.
#const k = 15.
#const h = 6.
tile(1,14,5).
tile(2,3,15).
tile(3,15,14).
tile(4,12,3).
tile(5,6,12).
tile(6,14,14).
tile(7,3,9).
tile(8,1,12).
tile(9,3,11).
tile(10,8,12).
tile(11,1,15).
tile(12,2,8).
tile(13,3,8).
tile(14,10,11).
tile(15,6,12).
tile(16,1,7).
tile(17,3,3).
tile(18,11,12).
tile(19,11,9).
tile(20,11,2).
tile(21,2,10).
tile(22,9,11).
tile(23,3,10).
tile(24,15,10).
tile(25,14,1).
tile(26,8,7).
tile(27,15,2).
tile(28,2,3).
tile(29,4,2).
tile(30,12,11).
