minizinc/input/in_30_15_6_2.dzn
n = 30;
k = 15;
h = 6;
tiles = array2d(1..n, 1..2,
[ 14,5
, 3,15
, 15,14
, 12,3
, 6,12
, 14,14
, 3,9
, 1,12
, 3,11
, 8,12
, 1,15
, 2,8
, 3,8
, 10,11
, 6,12
, 1,7
, 3,3
, 11,12
, 11,9
, 11,2
, 2,10
, 9,11
, 3,10
, 15,10
, 14,1
, 8,7
, 15,2
, 2,3
, 4,2
, 12,11
]);